100
1000
200
199
199
197
197
196
196
196
195
195
195
195
194
193
193
192
192
192
192
191
191
191
191
190
190
190
189
188
187
187
186
186
186
185
185
185
184
183
183
183
183
183
182
181
181
181
180
180
179
177
176
176
175
175
174
174
174
174
171
170
170
169
166
166
165
165
164
164
164
163
163
163
163
163
162
162
161
160
160
159
159
159
157
157
157
155
154
154
154
153
153
153
153
152
152
152
151
150
150
150
